91 91
15 13
20 45
5 58
12 81
4 9
19 49
7 8
44 28
26 71
42 35
27 25
6 6
17 90
40 64
8 82
38 85
14 80
32 51
39 32
1 41
36 43
12 30
13 21
4 66
28 76
41 4
21 65
23 10
38 87
9 75
42 78
22 53
27 77
44 73
37 38
21 52
35 7
30 83
29 12
9 23
11 33
22 88
2 50
33 26
40 74
25 57
31 46
3 44
25 70
45 40
1 84
14 11
41 1
36 86
15 55
24 3
16 47
16 24
28 91
32 17
37 36
10 18
35 89
43 61
20 63
18 69
13 68
24 67
23 2
18 15
26 19
17 54
45 60
29 14
30 31
33 16
7 42
10 5
34 20
8 59
1 48
31 34
11 39
19 22
43 37
34 62
5 29
6 27
3 56
2 79
39 72
